Optimal - objective value 28.00000000
     16 x_1.0_4.0                        1                       1
     33 x_10.0_20.0                      1                       1
     52 x_11.0_18.0                      1                       1
     82 x_12.0_5.0                       1                       1
     87 x_13.0_1.0                       1                       1
    114 x_14.0_16.0                      1                       2
    134 x_15.0_14.0                      1                       1
    174 x_17.0_12.0                      1                       3
    209 x_18.0_6.0                       1                       1
    226 x_19.0_22.0                      1                       2
    238 x_2.0_13.0                       1                       1
    268 x_20.0_21.0                      1                       1
    279 x_21.0_11.0                      1                       1
    309 x_22.0_2.0                       1                       1
    327 x_23.0_7.0                       1                       1
    336 x_3.0_15.0                       1                       2
    360 x_4.0_17.0                       1                       1
    390 x_5.0_3.0                        1                       1
    406 x_6.0_19.0                       1                       1
    438 x_7.0_8.0                        1                       2
    461 x_8.0_9.0                        1                       1
    463 x_9.0_10.0                       1                       1
    514 x_16.0_23.0                      1                       0
    548 b_7.0_10.0                       1                       0
    549 b_8.0_10.0                       1                       0
    550 b_9.0_10.0                       1                       0
    552 b_10.0_11.0                      1                       0
    563 b_20.0_11.0                      1                       0
    564 b_21.0_11.0                      1                       0
    570 b_7.0_11.0                       1                       0
    571 b_8.0_11.0                       1                       0
    572 b_9.0_11.0                       1                       0
    573 b_1.0_12.0                       1                       0
    574 b_10.0_12.0                      1                       0
    575 b_11.0_12.0                      1                       0
    577 b_13.0_12.0                      1                       0
    581 b_17.0_12.0                      1                       0
    582 b_18.0_12.0                      1                       0
    583 b_19.0_12.0                      1                       0
    584 b_2.0_12.0                       1                       0
    585 b_20.0_12.0                      1                       0
    586 b_21.0_12.0                      1                       0
    587 b_22.0_12.0                      1                       0
    589 b_4.0_12.0                       1                       0
    591 b_6.0_12.0                       1                       0
    592 b_7.0_12.0                       1                       0
    593 b_8.0_12.0                       1                       0
    594 b_9.0_12.0                       1                       0
    596 b_10.0_13.0                      1                       0
    597 b_11.0_13.0                      1                       0
    604 b_18.0_13.0                      1                       0
    605 b_19.0_13.0                      1                       0
    606 b_2.0_13.0                       1                       0
    607 b_20.0_13.0                      1                       0
    608 b_21.0_13.0                      1                       0
    609 b_22.0_13.0                      1                       0
    613 b_6.0_13.0                       1                       0
    614 b_7.0_13.0                       1                       0
    615 b_8.0_13.0                       1                       0
    616 b_9.0_13.0                       1                       0
    617 b_1.0_14.0                       1                       0
    618 b_10.0_14.0                      1                       0
    619 b_11.0_14.0                      1                       0
    620 b_12.0_14.0                      1                       0
    621 b_13.0_14.0                      1                       0
    623 b_15.0_14.0                      1                       0
    625 b_17.0_14.0                      1                       0
    626 b_18.0_14.0                      1                       0
    627 b_19.0_14.0                      1                       0
    628 b_2.0_14.0                       1                       0
    629 b_20.0_14.0                      1                       0
    630 b_21.0_14.0                      1                       0
    631 b_22.0_14.0                      1                       0
    632 b_3.0_14.0                       1                       0
    633 b_4.0_14.0                       1                       0
    634 b_5.0_14.0                       1                       0
    635 b_6.0_14.0                       1                       0
    636 b_7.0_14.0                       1                       0
    637 b_8.0_14.0                       1                       0
    638 b_9.0_14.0                       1                       0
    639 b_1.0_15.0                       1                       0
    640 b_10.0_15.0                      1                       0
    641 b_11.0_15.0                      1                       0
    642 b_12.0_15.0                      1                       0
    643 b_13.0_15.0                      1                       0
    647 b_17.0_15.0                      1                       0
    648 b_18.0_15.0                      1                       0
    649 b_19.0_15.0                      1                       0
    650 b_2.0_15.0                       1                       0
    651 b_20.0_15.0                      1                       0
    652 b_21.0_15.0                      1                       0
    653 b_22.0_15.0                      1                       0
    654 b_3.0_15.0                       1                       0
    655 b_4.0_15.0                       1                       0
    656 b_5.0_15.0                       1                       0
    657 b_6.0_15.0                       1                       0
    658 b_7.0_15.0                       1                       0
    659 b_8.0_15.0                       1                       0
    660 b_9.0_15.0                       1                       0
    661 b_1.0_16.0                       1                       0
    662 b_10.0_16.0                      1                       0
    663 b_11.0_16.0                      1                       0
    664 b_12.0_16.0                      1                       0
    665 b_13.0_16.0                      1                       0
    666 b_14.0_16.0                      1                       0
    667 b_15.0_16.0                      1                       0
    669 b_17.0_16.0                      1                       0
    670 b_18.0_16.0                      1                       0
    671 b_19.0_16.0                      1                       0
    672 b_2.0_16.0                       1                       0
    673 b_20.0_16.0                      1                       0
    674 b_21.0_16.0                      1                       0
    675 b_22.0_16.0                      1                       0
    676 b_3.0_16.0                       1                       0
    677 b_4.0_16.0                       1                       0
    678 b_5.0_16.0                       1                       0
    679 b_6.0_16.0                       1                       0
    680 b_7.0_16.0                       1                       0
    681 b_8.0_16.0                       1                       0
    682 b_9.0_16.0                       1                       0
    683 b_1.0_17.0                       1                       0
    684 b_10.0_17.0                      1                       0
    685 b_11.0_17.0                      1                       0
    687 b_13.0_17.0                      1                       0
    692 b_18.0_17.0                      1                       0
    693 b_19.0_17.0                      1                       0
    694 b_2.0_17.0                       1                       0
    695 b_20.0_17.0                      1                       0
    696 b_21.0_17.0                      1                       0
    697 b_22.0_17.0                      1                       0
    699 b_4.0_17.0                       1                       0
    701 b_6.0_17.0                       1                       0
    702 b_7.0_17.0                       1                       0
    703 b_8.0_17.0                       1                       0
    704 b_9.0_17.0                       1                       0
    706 b_10.0_18.0                      1                       0
    707 b_11.0_18.0                      1                       0
    717 b_20.0_18.0                      1                       0
    718 b_21.0_18.0                      1                       0
    724 b_7.0_18.0                       1                       0
    725 b_8.0_18.0                       1                       0
    726 b_9.0_18.0                       1                       0
    728 b_10.0_19.0                      1                       0
    729 b_11.0_19.0                      1                       0
    736 b_18.0_19.0                      1                       0
    739 b_20.0_19.0                      1                       0
    740 b_21.0_19.0                      1                       0
    745 b_6.0_19.0                       1                       0
    746 b_7.0_19.0                       1                       0
    747 b_8.0_19.0                       1                       0
    748 b_9.0_19.0                       1                       0
    750 b_10.0_1.0                       1                       0
    751 b_11.0_1.0                       1                       0
    753 b_13.0_1.0                       1                       0
    758 b_18.0_1.0                       1                       0
    759 b_19.0_1.0                       1                       0
    760 b_2.0_1.0                        1                       0
    761 b_20.0_1.0                       1                       0
    762 b_21.0_1.0                       1                       0
    763 b_22.0_1.0                       1                       0
    767 b_6.0_1.0                        1                       0
    768 b_7.0_1.0                        1                       0
    769 b_8.0_1.0                        1                       0
    770 b_9.0_1.0                        1                       0
    772 b_10.0_20.0                      1                       0
    790 b_7.0_20.0                       1                       0
    791 b_8.0_20.0                       1                       0
    792 b_9.0_20.0                       1                       0
    794 b_10.0_21.0                      1                       0
    805 b_20.0_21.0                      1                       0
    812 b_7.0_21.0                       1                       0
    813 b_8.0_21.0                       1                       0
    814 b_9.0_21.0                       1                       0
    816 b_10.0_22.0                      1                       0
    817 b_11.0_22.0                      1                       0
    824 b_18.0_22.0                      1                       0
    825 b_19.0_22.0                      1                       0
    827 b_20.0_22.0                      1                       0
    828 b_21.0_22.0                      1                       0
    833 b_6.0_22.0                       1                       0
    834 b_7.0_22.0                       1                       0
    835 b_8.0_22.0                       1                       0
    836 b_9.0_22.0                       1                       0
    838 b_10.0_2.0                       1                       0
    839 b_11.0_2.0                       1                       0
    846 b_18.0_2.0                       1                       0
    847 b_19.0_2.0                       1                       0
    849 b_20.0_2.0                       1                       0
    850 b_21.0_2.0                       1                       0
    851 b_22.0_2.0                       1                       0
    855 b_6.0_2.0                        1                       0
    856 b_7.0_2.0                        1                       0
    857 b_8.0_2.0                        1                       0
    858 b_9.0_2.0                        1                       0
    859 b_1.0_3.0                        1                       0
    860 b_10.0_3.0                       1                       0
    861 b_11.0_3.0                       1                       0
    862 b_12.0_3.0                       1                       0
    863 b_13.0_3.0                       1                       0
    867 b_17.0_3.0                       1                       0
    868 b_18.0_3.0                       1                       0
    869 b_19.0_3.0                       1                       0
    870 b_2.0_3.0                        1                       0
    871 b_20.0_3.0                       1                       0
    872 b_21.0_3.0                       1                       0
    873 b_22.0_3.0                       1                       0
    875 b_4.0_3.0                        1                       0
    876 b_5.0_3.0                        1                       0
    877 b_6.0_3.0                        1                       0
    878 b_7.0_3.0                        1                       0
    879 b_8.0_3.0                        1                       0
    880 b_9.0_3.0                        1                       0
    881 b_1.0_4.0                        1                       0
    882 b_10.0_4.0                       1                       0
    883 b_11.0_4.0                       1                       0
    885 b_13.0_4.0                       1                       0
    890 b_18.0_4.0                       1                       0
    891 b_19.0_4.0                       1                       0
    892 b_2.0_4.0                        1                       0
    893 b_20.0_4.0                       1                       0
    894 b_21.0_4.0                       1                       0
    895 b_22.0_4.0                       1                       0
    899 b_6.0_4.0                        1                       0
    900 b_7.0_4.0                        1                       0
    901 b_8.0_4.0                        1                       0
    902 b_9.0_4.0                        1                       0
    903 b_1.0_5.0                        1                       0
    904 b_10.0_5.0                       1                       0
    905 b_11.0_5.0                       1                       0
    906 b_12.0_5.0                       1                       0
    907 b_13.0_5.0                       1                       0
    911 b_17.0_5.0                       1                       0
    912 b_18.0_5.0                       1                       0
    913 b_19.0_5.0                       1                       0
    914 b_2.0_5.0                        1                       0
    915 b_20.0_5.0                       1                       0
    916 b_21.0_5.0                       1                       0
    917 b_22.0_5.0                       1                       0
    919 b_4.0_5.0                        1                       0
    921 b_6.0_5.0                        1                       0
    922 b_7.0_5.0                        1                       0
    923 b_8.0_5.0                        1                       0
    924 b_9.0_5.0                        1                       0
    926 b_10.0_6.0                       1                       0
    927 b_11.0_6.0                       1                       0
    934 b_18.0_6.0                       1                       0
    937 b_20.0_6.0                       1                       0
    938 b_21.0_6.0                       1                       0
    944 b_7.0_6.0                        1                       0
    945 b_8.0_6.0                        1                       0
    946 b_9.0_6.0                        1                       0
    988 b_7.0_8.0                        1                       0
   1010 b_7.0_9.0                        1                       0
   1011 b_8.0_9.0                        1                       0
   1014 b_1.0_23.0                       1                       0
   1015 b_10.0_23.0                      1                       0
   1016 b_11.0_23.0                      1                       0
   1017 b_12.0_23.0                      1                       0
   1018 b_13.0_23.0                      1                       0
   1019 b_14.0_23.0                      1                       0
   1020 b_15.0_23.0                      1                       0
   1021 b_16.0_23.0                      1                       0
   1022 b_17.0_23.0                      1                       0
   1023 b_18.0_23.0                      1                       0
   1024 b_19.0_23.0                      1                       0
   1025 b_2.0_23.0                       1                       0
   1026 b_20.0_23.0                      1                       0
   1027 b_21.0_23.0                      1                       0
   1028 b_22.0_23.0                      1                       0
   1029 b_3.0_23.0                       1                       0
   1030 b_4.0_23.0                       1                       0
   1031 b_5.0_23.0                       1                       0
   1032 b_6.0_23.0                       1                       0
   1033 b_7.0_23.0                       1                       0
   1034 b_8.0_23.0                       1                       0
   1035 b_9.0_23.0                       1                       0
   1036 b_23.0_1.0                       1                       0
   1037 b_23.0_10.0                      1                       0
   1038 b_23.0_11.0                      1                       0
   1039 b_23.0_12.0                      1                       0
   1040 b_23.0_13.0                      1                       0
   1041 b_23.0_14.0                      1                       0
   1042 b_23.0_15.0                      1                       0
   1043 b_23.0_16.0                      1                       0
   1044 b_23.0_17.0                      1                       0
   1045 b_23.0_18.0                      1                       0
   1046 b_23.0_19.0                      1                       0
   1047 b_23.0_2.0                       1                       0
   1048 b_23.0_20.0                      1                       0
   1049 b_23.0_21.0                      1                       0
   1050 b_23.0_22.0                      1                       0
   1051 b_23.0_3.0                       1                       0
   1052 b_23.0_4.0                       1                       0
   1053 b_23.0_5.0                       1                       0
   1054 b_23.0_6.0                       1                       0
   1055 b_23.0_7.0                       1                       0
   1056 b_23.0_8.0                       1                       0
   1057 b_23.0_9.0                       1                       0
